k = 24;
b = 12;
AtomicConstraints =  [|
1, 6|
	1, 7|
	1, 9|
	1, 10|
	2, 7|
	2, 10|
	2, 17|
	2, 22|
	3, 1|
	3, 6|
	3, 7|
	3, 8|
	3, 9|
	3, 10|
	3, 11|
	3, 17|
	4, 2|
	4, 7|
	4, 10|
	4, 17|
	4, 22|
	4, 16|
	4, 12|
	5, 2|
	5, 7|
	5, 10|
	5, 17|
	5, 22|
	5, 16|
	5, 23|
	5, 12|
	8, 6|
	9, 6|
	9, 7|
	10, 7|
	11, 6|
	11, 7|
	11, 8|
	11, 9|
	13, 22|
	13, 16|
	13, 23|
	13, 14|
	13, 15|
	20, 23|
	20, 15|
	18, 17|
	18, 13|
	18, 22|
	18, 16|
	18, 23|
	18, 12|
	18, 14|
	18, 15|
	18, 24|
	21, 20|
	21, 16|
	21, 23|
	21, 14|
	21, 15|
	19, 20|
	19, 23|
	19, 15|
	12, 17|
	12, 22|
	12, 16|
	14, 16|
	14, 23|
	15, 23|
	24, 17|
	24, 22|
	24, 16|
	24, 23|
	24, 12|
	24, 14|];
DisjunctiveConstraints =  [|5, 19, 5, 7|];
SoftAtomicConstraints =  [|
11, 1|
1, 2|
3, 4|
4, 5|
6, 7|
8, 9|
9, 10|
10, 12|
24, 13|
12, 14|
14, 15|
22, 16|
7, 17|
5, 18|
21, 19|
13, 20|
18, 21|
17, 22|
16, 23|
2, 24|];
DirectSuccessors =  [];
